8  1  2  6  5  3  4  7  9  

6  9  5  2  4  7  1  3  8  

7  3  4  1  9  8  5  2  6  

9  2  7  4  1  5  8  6  3  

4  5  8  3  6  9  7  1  2  

3  6  1  7  8  2  9  5  4  

2  4  3  9  7  1  6  8  5  

1  8  9  5  2  6  3  4  7  

5  7  6  8  3  4  2  9  1  